% demand
num_movements = 46;
loading_factor = [800, 1450, 1600, 1200, 1950, 1500, 800, 1600, 1600, 800, 1450, 1200, 1250, 1450, 1300, 1900, 950, 1800, 800, 1050, 1800, 900, 950, 850, 1050, 1100, 1050, 2000, 1400, 1150, 1300, 1550, 1450, 1550, 1000, 1000, 1000, 950, 850, 1850, 1350, 1200, 800, 1900, 1850, 1000];
pickup_time = [0, 0, 0, 0, 0, 0, 0, 0, 1, 1, 1, 1, 1, 2, 2, 3, 3, 3, 3, 3, 3, 3, 5, 5, 5, 6, 6, 6, 6, 6, 6, 6, 7, 7, 8, 8, 8, 8, 8, 8, 9, 9, 9, 9, 10, 12];
delivery_time = [1, 1, 1, 1, 1, 1, 1, 1, 3, 3, 2, 2, 4, 3, 3, 6, 4, 4, 4, 4, 4, 4, 6, 6, 7, 7, 7, 7, 7, 7, 7, 7, 9, 9, 9, 9, 9, 13, 13, 13, 13, 13, 12, 13, 13, 13];

% transporter definition
total_capacity = 11000;
num_decks = 4;
capacity = [3000, 3000, 1000, 4000];

% ways out of decks
num_ways_out = 2;
paths_out = array3d(decks, ways_out, decks, [
% ways out of deck d1
2, 4, 0, 0, 3, 4, 0, 0, 

% ways out of deck d2
4, 0, 0, 0, 0, 0, 0, 0,	

% ways out of deck d3
4, 0, 0, 0, 0, 0, 0, 0,	

% ways out of deck d4
0, 0, 0, 0,	0, 0, 0, 0,	

]);

